decision_x1=[0,7];
decision_x2=[0,7];
decision_x3=[0,7];
decision_x4=[0,7];
decision_x5=[0,7];
decision_x6=[0,7];
decision_x7=[0,7];
decision_x8=[0,7];
decision_x9=[0,7];
decision_x10=[0,7];
decision_x11=[0,7];
decision_x12=[0,7];
decision_x13=[0,7];
decision_x14=[0,7];
random_y1=[0,7];
random_y2=[0,7];
random_y3=[0,7];
random_y4=[0,7];
random_y5=[0,7];
random_y6=[0,7];
constraint_x2_x1=[
0,0,4.1|
0,1,0.89|
0,2,8.9|
0,3,2.6|
0,4,2.9|
0,5,2.5|
0,6,9.3|
0,7,0.18|
1,0,3.9|
1,1,0.31|
1,2,0.045|
1,3,10|
1,4,4.9|
1,5,8.9|
1,6,9.2|
1,7,4.2|
2,0,5.8|
2,1,6.4|
2,2,0.64|
2,3,1.5|
2,4,0.048|
2,5,1.6|
2,6,2.7|
2,7,0.32|
3,0,8.7|
3,1,1.1|
3,2,5.4|
3,3,1.5|
3,4,6.1|
3,5,9.1|
3,6,5.1|
3,7,3.3|
4,0,2|
4,1,7.1|
4,2,0.83|
4,3,1.7|
4,4,0.25|
4,5,6.3|
4,6,8.2|
4,7,9.4|
5,0,5.6|
5,1,5.9|
5,2,5.2|
5,3,3.9|
5,4,5.8|
5,5,6.6|
5,6,3.9|
5,7,5.7|
6,0,6.7|
6,1,6.8|
6,2,2.3|
6,3,6|
6,4,8.7|
6,5,0.63|
6,6,0.98|
6,7,7.2|
7,0,4|
7,1,1.6|
7,2,8.1|
7,3,2.7|
7,4,1.4|
7,5,9.6|
7,6,0.99|
7,7,7.7|
];
constraint_x3_x2=[
0,0,8.8|
0,1,4.2|
0,2,5.1|
0,3,4.1|
0,4,1.6|
0,5,6.9|
0,6,4.6|
0,7,8.5|
1,0,1.5|
1,1,3.9|
1,2,7.4|
1,3,4.6|
1,4,5.2|
1,5,8.8|
1,6,1.8|
1,7,6.7|
2,0,0.76|
2,1,9.1|
2,2,7.5|
2,3,2.9|
2,4,10|
2,5,9.7|
2,6,6.3|
2,7,2.2|
3,0,6.6|
3,1,2|
3,2,9.7|
3,3,7.5|
3,4,4.3|
3,5,2.6|
3,6,1.1|
3,7,1.8|
4,0,9.4|
4,1,5.7|
4,2,9.1|
4,3,1.4|
4,4,5.4|
4,5,9.5|
4,6,1.2|
4,7,3.9|
5,0,0.2|
5,1,8.3|
5,2,2|
5,3,1.2|
5,4,9.9|
5,5,4.5|
5,6,3.2|
5,7,5.5|
6,0,3.3|
6,1,9.6|
6,2,2|
6,3,7.5|
6,4,0.24|
6,5,4.7|
6,6,5.7|
6,7,0.14|
7,0,2.2|
7,1,2|
7,2,2.1|
7,3,9.1|
7,4,7.8|
7,5,6.6|
7,6,7.4|
7,7,5.7|
];
constraint_x4_x3=[
0,0,8.6|
0,1,7.2|
0,2,2.7|
0,3,0.17|
0,4,3.3|
0,5,1.2|
0,6,4|
0,7,8.9|
1,0,7.8|
1,1,1|
1,2,8.7|
1,3,9.7|
1,4,4.5|
1,5,0.93|
1,6,9.9|
1,7,3.2|
2,0,3.1|
2,1,4.4|
2,2,0.15|
2,3,5.2|
2,4,9.8|
2,5,2.4|
2,6,6.4|
2,7,8.1|
3,0,4.7|
3,1,2.5|
3,2,8.6|
3,3,9.5|
3,4,0.88|
3,5,1.4|
3,6,5.7|
3,7,8.6|
4,0,4.7|
4,1,9.8|
4,2,6.4|
4,3,7.9|
4,4,0.6|
4,5,7.7|
4,6,1.6|
4,7,8.8|
5,0,0.2|
5,1,4.9|
5,2,0.12|
5,3,4|
5,4,4.9|
5,5,6.5|
5,6,6.9|
5,7,3.8|
6,0,6.7|
6,1,8|
6,2,2.7|
6,3,2.1|
6,4,2|
6,5,6.8|
6,6,8.4|
6,7,8.5|
7,0,1|
7,1,2.9|
7,2,3.1|
7,3,6.5|
7,4,0.18|
7,5,6.2|
7,6,6.8|
7,7,9.3|
];
constraint_x5_x1=[
0,0,4.7|
0,1,7.9|
0,2,3.6|
0,3,7.8|
0,4,3.8|
0,5,2.4|
0,6,8.4|
0,7,4.7|
1,0,6.2|
1,1,4.4|
1,2,0.93|
1,3,4.8|
1,4,0.76|
1,5,2.5|
1,6,5.1|
1,7,0.98|
2,0,1.5|
2,1,3.2|
2,2,4.7|
2,3,6.5|
2,4,9.4|
2,5,9.2|
2,6,5.1|
2,7,3.2|
3,0,3.6|
3,1,7.1|
3,2,2.3|
3,3,6.1|
3,4,4.3|
3,5,2|
3,6,8.5|
3,7,6.6|
4,0,3.7|
4,1,4.7|
4,2,5.7|
4,3,5.4|
4,4,0.96|
4,5,1.8|
4,6,6.2|
4,7,1.4|
5,0,1.9|
5,1,9|
5,2,2.7|
5,3,9.5|
5,4,9.5|
5,5,0.58|
5,6,9|
5,7,2.7|
6,0,9.9|
6,1,3.9|
6,2,4.4|
6,3,4.8|
6,4,3.6|
6,5,2|
6,6,2|
6,7,8.5|
7,0,3.4|
7,1,1.9|
7,2,6.9|
7,3,1.6|
7,4,4.4|
7,5,8|
7,6,6|
7,7,0.39|
];
constraint_x6_x2=[
0,0,8.2|
0,1,9.9|
0,2,8|
0,3,9.6|
0,4,6.8|
0,5,7.7|
0,6,9.5|
0,7,3.7|
1,0,0.71|
1,1,3|
1,2,8.5|
1,3,1.4|
1,4,8.9|
1,5,10|
1,6,7.2|
1,7,1.6|
2,0,5.6|
2,1,1.6|
2,2,6.4|
2,3,3.2|
2,4,5.8|
2,5,3.1|
2,6,2.9|
2,7,0.71|
3,0,4.7|
3,1,2.1|
3,2,1.1|
3,3,0.46|
3,4,4.7|
3,5,3.8|
3,6,0.29|
3,7,4|
4,0,3.7|
4,1,1.5|
4,2,6.5|
4,3,6.8|
4,4,5.4|
4,5,7.4|
4,6,2.2|
4,7,5.3|
5,0,7.8|
5,1,3|
5,2,4.8|
5,3,0.75|
5,4,4.6|
5,5,5.8|
5,6,1.8|
5,7,8.7|
6,0,1.5|
6,1,3.1|
6,2,1|
6,3,1.4|
6,4,2.5|
6,5,3|
6,6,7.8|
6,7,4.1|
7,0,8.7|
7,1,6|
7,2,9.6|
7,3,0.54|
7,4,4.5|
7,5,4.8|
7,6,5.7|
7,7,0.29|
];
constraint_x6_x5=[
0,0,0.93|
0,1,2.4|
0,2,7.1|
0,3,1.8|
0,4,6.8|
0,5,3.5|
0,6,2.9|
0,7,8.1|
1,0,5.5|
1,1,5.3|
1,2,7.6|
1,3,0.21|
1,4,8.7|
1,5,8.2|
1,6,4.4|
1,7,7.6|
2,0,0.27|
2,1,8.8|
2,2,9.3|
2,3,3.2|
2,4,5.5|
2,5,1.1|
2,6,1.4|
2,7,6.4|
3,0,8.7|
3,1,7.7|
3,2,2.3|
3,3,9.4|
3,4,4.8|
3,5,6.1|
3,6,8.3|
3,7,7|
4,0,0.042|
4,1,1.1|
4,2,2.9|
4,3,5.1|
4,4,4.6|
4,5,0.88|
4,6,2.8|
4,7,5.4|
5,0,6.8|
5,1,5.8|
5,2,6.1|
5,3,4.3|
5,4,8.9|
5,5,4|
5,6,7.3|
5,7,0.81|
6,0,3.8|
6,1,5.3|
6,2,3.2|
6,3,9|
6,4,3.7|
6,5,1|
6,6,6.9|
6,7,1.5|
7,0,6.2|
7,1,7.1|
7,2,8.8|
7,3,4.3|
7,4,4.2|
7,5,3|
7,6,3.2|
7,7,9.9|
];
constraint_x7_x3=[
0,0,4.1|
0,1,1.9|
0,2,2.7|
0,3,6|
0,4,7.3|
0,5,8.8|
0,6,1.8|
0,7,7.4|
1,0,1.3|
1,1,6.2|
1,2,3|
1,3,1.9|
1,4,4.9|
1,5,8.9|
1,6,3.5|
1,7,8|
2,0,4.2|
2,1,1.7|
2,2,8|
2,3,9.3|
2,4,6.6|
2,5,4.4|
2,6,9.3|
2,7,7.7|
3,0,1.9|
3,1,6.1|
3,2,3.3|
3,3,3.8|
3,4,1.5|
3,5,8.5|
3,6,2.4|
3,7,8|
4,0,1.2|
4,1,4.7|
4,2,10|
4,3,8.8|
4,4,7.3|
4,5,8.6|
4,6,5|
4,7,2.7|
5,0,3.1|
5,1,5.1|
5,2,10|
5,3,7.6|
5,4,1.3|
5,5,1.9|
5,6,9.1|
5,7,4.5|
6,0,1|
6,1,6.2|
6,2,9.4|
6,3,2.1|
6,4,7.2|
6,5,4.8|
6,6,7.3|
6,7,8.8|
7,0,3|
7,1,7|
7,2,2.1|
7,3,5.2|
7,4,9|
7,5,2.7|
7,6,6.5|
7,7,4.3|
];
constraint_x7_x6=[
0,0,5.4|
0,1,9.2|
0,2,4.7|
0,3,5.6|
0,4,1.2|
0,5,9.9|
0,6,8.3|
0,7,0.86|
1,0,7.7|
1,1,5.2|
1,2,2.2|
1,3,3|
1,4,1.2|
1,5,0.38|
1,6,6.9|
1,7,0.56|
2,0,2.4|
2,1,2.7|
2,2,7.6|
2,3,7.8|
2,4,9.2|
2,5,4.5|
2,6,4.5|
2,7,2.6|
3,0,2|
3,1,8.8|
3,2,2|
3,3,4.1|
3,4,9.8|
3,5,6.8|
3,6,6.3|
3,7,0.35|
4,0,2.7|
4,1,1|
4,2,9.1|
4,3,3|
4,4,2.6|
4,5,2.7|
4,6,9.6|
4,7,4.8|
5,0,8.9|
5,1,5.6|
5,2,4.5|
5,3,9.2|
5,4,0.93|
5,5,5.5|
5,6,1.9|
5,7,5.7|
6,0,3.4|
6,1,2.7|
6,2,8.1|
6,3,3|
6,4,7.6|
6,5,7.4|
6,6,3.8|
6,7,0.88|
7,0,1|
7,1,8.9|
7,2,3.6|
7,3,2.6|
7,4,8.4|
7,5,3.7|
7,6,1.4|
7,7,2.1|
];
constraint_x8_x4=[
0,0,4.4|
0,1,8.1|
0,2,5.9|
0,3,6.3|
0,4,3.2|
0,5,9.8|
0,6,2.6|
0,7,9.2|
1,0,9.5|
1,1,7.3|
1,2,7.9|
1,3,9.6|
1,4,9.9|
1,5,2.5|
1,6,0.62|
1,7,5.2|
2,0,5.1|
2,1,9|
2,2,7.4|
2,3,3.6|
2,4,2.8|
2,5,5.3|
2,6,4.6|
2,7,2.4|
3,0,6.6|
3,1,8.6|
3,2,4.3|
3,3,8.2|
3,4,1.1|
3,5,8.8|
3,6,1.8|
3,7,7.4|
4,0,3.1|
4,1,3.2|
4,2,2.6|
4,3,6.4|
4,4,1.6|
4,5,4|
4,6,1.3|
4,7,5.8|
5,0,0.97|
5,1,0.17|
5,2,0.055|
5,3,7.8|
5,4,6.9|
5,5,1.5|
5,6,8.8|
5,7,2.8|
6,0,3.9|
6,1,8.4|
6,2,9.7|
6,3,6|
6,4,3.8|
6,5,6.2|
6,6,9.5|
6,7,0.57|
7,0,8.5|
7,1,7.1|
7,2,7|
7,3,3.7|
7,4,1.6|
7,5,9.4|
7,6,7.5|
7,7,5.9|
];
constraint_x8_x7=[
0,0,4.3|
0,1,0.64|
0,2,8.2|
0,3,9.8|
0,4,0.82|
0,5,1.5|
0,6,4.2|
0,7,7.4|
1,0,4.3|
1,1,2.8|
1,2,6.1|
1,3,8.8|
1,4,1.4|
1,5,3.1|
1,6,7.9|
1,7,0.56|
2,0,6.3|
2,1,8.8|
2,2,2.3|
2,3,4.9|
2,4,6.7|
2,5,1.3|
2,6,0.31|
2,7,0.29|
3,0,9.6|
3,1,3.7|
3,2,8.4|
3,3,6.3|
3,4,8.2|
3,5,0.38|
3,6,0.57|
3,7,7.2|
4,0,7.8|
4,1,8.8|
4,2,9|
4,3,5.6|
4,4,0.023|
4,5,6.5|
4,6,4.7|
4,7,0.26|
5,0,7.9|
5,1,6.5|
5,2,8.8|
5,3,5.3|
5,4,7.4|
5,5,3.1|
5,6,2|
5,7,5.7|
6,0,5.5|
6,1,9.8|
6,2,8.7|
6,3,0.14|
6,4,2|
6,5,5|
6,6,1.8|
6,7,6.9|
7,0,3.6|
7,1,0.35|
7,2,7.6|
7,3,0.57|
7,4,5.8|
7,5,7.7|
7,6,1.5|
7,7,8|
];
constraint_x9_x5=[
0,0,7.8|
0,1,5.8|
0,2,6.6|
0,3,1.7|
0,4,9.9|
0,5,7.8|
0,6,4.7|
0,7,5.3|
1,0,7.5|
1,1,3.1|
1,2,2|
1,3,3.1|
1,4,1.4|
1,5,3|
1,6,2.8|
1,7,0.75|
2,0,9|
2,1,3.3|
2,2,9.3|
2,3,5.6|
2,4,5.9|
2,5,0.18|
2,6,8.2|
2,7,9.2|
3,0,5.4|
3,1,9.3|
3,2,1.3|
3,3,9.8|
3,4,6.5|
3,5,5.4|
3,6,3.1|
3,7,3.5|
4,0,7.2|
4,1,3.7|
4,2,2.8|
4,3,8.5|
4,4,9.9|
4,5,4.3|
4,6,0.94|
4,7,6.5|
5,0,3.8|
5,1,8.2|
5,2,2.6|
5,3,8.8|
5,4,5.9|
5,5,3.8|
5,6,8.1|
5,7,4.6|
6,0,2|
6,1,8.5|
6,2,7.8|
6,3,9|
6,4,8.3|
6,5,2.1|
6,6,2.2|
6,7,7.4|
7,0,0.64|
7,1,0.43|
7,2,2.2|
7,3,3.9|
7,4,6.1|
7,5,3.4|
7,6,8.8|
7,7,6.3|
];
constraint_x10_x6=[
0,0,4.6|
0,1,0.83|
0,2,5.3|
0,3,4.3|
0,4,3.5|
0,5,2.5|
0,6,2.2|
0,7,5|
1,0,2.5|
1,1,3.5|
1,2,9.3|
1,3,3.5|
1,4,4.9|
1,5,4|
1,6,7.9|
1,7,6.2|
2,0,2.6|
2,1,6.6|
2,2,3.3|
2,3,7.3|
2,4,9.3|
2,5,1.6|
2,6,4.8|
2,7,4.1|
3,0,1.8|
3,1,3.3|
3,2,1.8|
3,3,4|
3,4,4|
3,5,5.6|
3,6,2.7|
3,7,5|
4,0,2.9|
4,1,6|
4,2,6.6|
4,3,3|
4,4,4.9|
4,5,7|
4,6,6|
4,7,10|
5,0,1.2|
5,1,1.8|
5,2,0.18|
5,3,6.1|
5,4,0.35|
5,5,1.4|
5,6,3.9|
5,7,9.2|
6,0,7.3|
6,1,3.2|
6,2,7.3|
6,3,8.2|
6,4,4|
6,5,0.11|
6,6,4.4|
6,7,7.8|
7,0,7.5|
7,1,5.3|
7,2,1.9|
7,3,1.6|
7,4,0.025|
7,5,5.5|
7,6,5.4|
7,7,4.4|
];
constraint_x10_x9=[
0,0,5.1|
0,1,2.2|
0,2,0.6|
0,3,0.37|
0,4,5.4|
0,5,10|
0,6,3.3|
0,7,9.9|
1,0,6|
1,1,8.5|
1,2,8.6|
1,3,5.7|
1,4,7.7|
1,5,3.9|
1,6,4.7|
1,7,0.87|
2,0,8.6|
2,1,5.1|
2,2,8.5|
2,3,0.18|
2,4,2|
2,5,0.013|
2,6,8|
2,7,8|
3,0,2.8|
3,1,4.5|
3,2,9.4|
3,3,4.3|
3,4,5|
3,5,3.9|
3,6,3.2|
3,7,8|
4,0,3.1|
4,1,1.9|
4,2,1.5|
4,3,3.5|
4,4,1.1|
4,5,2.7|
4,6,9|
4,7,4.1|
5,0,9.5|
5,1,5.2|
5,2,6.8|
5,3,0.96|
5,4,0.69|
5,5,8.3|
5,6,8.7|
5,7,9.8|
6,0,9.2|
6,1,1.2|
6,2,3.9|
6,3,1.7|
6,4,2.6|
6,5,5.3|
6,6,2.1|
6,7,1.4|
7,0,3|
7,1,2.7|
7,2,0.063|
7,3,4.7|
7,4,5.1|
7,5,7|
7,6,1.2|
7,7,2.2|
];
constraint_x11_x7=[
0,0,3.2|
0,1,9.2|
0,2,2.5|
0,3,2|
0,4,3|
0,5,7.5|
0,6,0.73|
0,7,1.3|
1,0,7.6|
1,1,2.1|
1,2,1.9|
1,3,6.6|
1,4,7|
1,5,4.1|
1,6,1.1|
1,7,1.6|
2,0,9.8|
2,1,4.8|
2,2,5.7|
2,3,8.1|
2,4,0.74|
2,5,6.5|
2,6,9.2|
2,7,9.5|
3,0,9|
3,1,2.6|
3,2,7.3|
3,3,5.3|
3,4,7.6|
3,5,9.3|
3,6,5.3|
3,7,7.5|
4,0,5.3|
4,1,1.9|
4,2,1.5|
4,3,2.7|
4,4,8.3|
4,5,2.5|
4,6,7.5|
4,7,8.9|
5,0,4.5|
5,1,4.6|
5,2,5|
5,3,8.8|
5,4,8|
5,5,0.67|
5,6,0.3|
5,7,8.9|
6,0,3.9|
6,1,9.7|
6,2,5.2|
6,3,1.7|
6,4,6.1|
6,5,0.97|
6,6,6.1|
6,7,2.1|
7,0,8|
7,1,0.53|
7,2,3.7|
7,3,0.37|
7,4,4.4|
7,5,10|
7,6,3.4|
7,7,8.1|
];
constraint_x11_x10=[
0,0,3.3|
0,1,7.5|
0,2,3.7|
0,3,5.9|
0,4,5.9|
0,5,2.6|
0,6,2.6|
0,7,7|
1,0,3.5|
1,1,4.7|
1,2,2.6|
1,3,2.8|
1,4,0.77|
1,5,6.2|
1,6,3.9|
1,7,2|
2,0,2.2|
2,1,5|
2,2,5.6|
2,3,5.9|
2,4,5.4|
2,5,1.9|
2,6,8.4|
2,7,1.1|
3,0,6.6|
3,1,8.6|
3,2,5.8|
3,3,8.3|
3,4,3.1|
3,5,6.3|
3,6,1.1|
3,7,8.6|
4,0,4.4|
4,1,0.95|
4,2,2.6|
4,3,8.7|
4,4,1.7|
4,5,7.4|
4,6,5|
4,7,6.3|
5,0,2.4|
5,1,8.6|
5,2,3.2|
5,3,4.1|
5,4,8.1|
5,5,6.9|
5,6,2.7|
5,7,2.9|
6,0,2.1|
6,1,3.4|
6,2,4.7|
6,3,9.4|
6,4,7.6|
6,5,9.6|
6,6,1|
6,7,8.7|
7,0,7.7|
7,1,9.7|
7,2,4.7|
7,3,0.73|
7,4,8.2|
7,5,6.9|
7,6,5.8|
7,7,0.53|
];
constraint_x12_x8=[
0,0,0.6|
0,1,6.9|
0,2,6.5|
0,3,9.1|
0,4,3.6|
0,5,9.2|
0,6,1.9|
0,7,0.73|
1,0,4.6|
1,1,6.6|
1,2,8.9|
1,3,6|
1,4,8.3|
1,5,6.3|
1,6,6|
1,7,9.2|
2,0,9.8|
2,1,6.8|
2,2,7.6|
2,3,5|
2,4,1.8|
2,5,2.2|
2,6,5.4|
2,7,1.5|
3,0,9.3|
3,1,2.8|
3,2,9.8|
3,3,2.7|
3,4,7.5|
3,5,5.6|
3,6,4.3|
3,7,6.4|
4,0,3.7|
4,1,0.58|
4,2,1.3|
4,3,7.8|
4,4,1.2|
4,5,6|
4,6,3.5|
4,7,4.9|
5,0,7|
5,1,0.91|
5,2,3.5|
5,3,2.4|
5,4,4.3|
5,5,1.7|
5,6,3.7|
5,7,1.6|
6,0,0.58|
6,1,9.3|
6,2,2.5|
6,3,0.8|
6,4,8.4|
6,5,6|
6,6,3.5|
6,7,8.3|
7,0,7|
7,1,8.6|
7,2,3.1|
7,3,6.8|
7,4,5.5|
7,5,6.9|
7,6,9.6|
7,7,9.7|
];
constraint_x12_x11=[
0,0,6.6|
0,1,0.35|
0,2,2.3|
0,3,1.9|
0,4,3.5|
0,5,5.3|
0,6,7.8|
0,7,3|
1,0,6.5|
1,1,6.6|
1,2,2.9|
1,3,2|
1,4,8.3|
1,5,8.8|
1,6,0.98|
1,7,6.1|
2,0,3|
2,1,4.1|
2,2,0.89|
2,3,0.018|
2,4,5.2|
2,5,8.8|
2,6,3.2|
2,7,0.094|
3,0,3.5|
3,1,7|
3,2,4.9|
3,3,3.7|
3,4,6.1|
3,5,1.1|
3,6,3.9|
3,7,4.6|
4,0,2.9|
4,1,0.45|
4,2,7.7|
4,3,1.9|
4,4,8.7|
4,5,5.1|
4,6,3.8|
4,7,5.7|
5,0,4.6|
5,1,6.5|
5,2,2|
5,3,8.8|
5,4,3|
5,5,9.1|
5,6,1.4|
5,7,6|
6,0,2.9|
6,1,3.1|
6,2,5.1|
6,3,7.3|
6,4,1.7|
6,5,9.6|
6,6,2.6|
6,7,3.7|
7,0,8.7|
7,1,0.2|
7,2,5.9|
7,3,8.8|
7,4,9.5|
7,5,8.1|
7,6,4|
7,7,9.6|
];
constraint_x13_x9=[
0,0,6.5|
0,1,2.2|
0,2,0.18|
0,3,2.1|
0,4,6.1|
0,5,6|
0,6,2.3|
0,7,2.4|
1,0,2.2|
1,1,4.6|
1,2,6.4|
1,3,9.1|
1,4,4.7|
1,5,5.3|
1,6,6.8|
1,7,9.2|
2,0,3.3|
2,1,9.6|
2,2,7.7|
2,3,1.6|
2,4,2|
2,5,5.2|
2,6,0.46|
2,7,6.7|
3,0,5.3|
3,1,2.5|
3,2,5.8|
3,3,7.9|
3,4,1|
3,5,8.4|
3,6,2|
3,7,5.7|
4,0,0.46|
4,1,8.1|
4,2,1.2|
4,3,1.2|
4,4,5.4|
4,5,1.8|
4,6,1.9|
4,7,6.9|
5,0,7.7|
5,1,1.8|
5,2,8.4|
5,3,4.4|
5,4,3.7|
5,5,7|
5,6,2.8|
5,7,6.5|
6,0,9.1|
6,1,8.7|
6,2,7.7|
6,3,6.9|
6,4,4.4|
6,5,5.1|
6,6,8.8|
6,7,2.2|
7,0,5.4|
7,1,0.17|
7,2,1.9|
7,3,6.5|
7,4,3.5|
7,5,0.019|
7,6,3.5|
7,7,3.7|
];
constraint_x14_x10=[
0,0,4.2|
0,1,5.6|
0,2,4.3|
0,3,9.9|
0,4,5.9|
0,5,8.9|
0,6,2.7|
0,7,0.34|
1,0,6.8|
1,1,2|
1,2,6.1|
1,3,9.5|
1,4,7|
1,5,9.6|
1,6,6.7|
1,7,2|
2,0,9.3|
2,1,7.5|
2,2,4.6|
2,3,2.2|
2,4,8.7|
2,5,5.3|
2,6,0.48|
2,7,8.1|
3,0,1.5|
3,1,1.9|
3,2,9.3|
3,3,10|
3,4,7.7|
3,5,2|
3,6,3.4|
3,7,6.3|
4,0,3.6|
4,1,1.6|
4,2,8.8|
4,3,7.8|
4,4,1.1|
4,5,5|
4,6,7.8|
4,7,2.9|
5,0,5|
5,1,4|
5,2,4.8|
5,3,1.1|
5,4,4.3|
5,5,7.9|
5,6,8.9|
5,7,4|
6,0,3.1|
6,1,8.1|
6,2,1.4|
6,3,6.9|
6,4,1.1|
6,5,1.3|
6,6,0.9|
6,7,5.3|
7,0,5.6|
7,1,2.2|
7,2,8.5|
7,3,9.1|
7,4,4.5|
7,5,4.6|
7,6,0.81|
7,7,8.6|
];
constraint_x1_y1=[
0,0,6.4|
0,1,4.5|
0,2,4.9|
0,3,9.4|
0,4,3|
0,5,2.3|
0,6,1.6|
0,7,3.8|
1,0,3.6|
1,1,2.6|
1,2,6.1|
1,3,1.5|
1,4,9.1|
1,5,5.2|
1,6,7.2|
1,7,1.9|
2,0,8.9|
2,1,7.5|
2,2,5.3|
2,3,7|
2,4,6.5|
2,5,7.6|
2,6,4.1|
2,7,4|
3,0,9.4|
3,1,2.3|
3,2,7.3|
3,3,3.3|
3,4,4.9|
3,5,1.5|
3,6,9.2|
3,7,3.8|
4,0,1.5|
4,1,4.5|
4,2,5.3|
4,3,3.6|
4,4,9.3|
4,5,10|
4,6,2.9|
4,7,0.88|
5,0,4.3|
5,1,1.2|
5,2,0.11|
5,3,7.7|
5,4,9.3|
5,5,9.2|
5,6,4.6|
5,7,2.5|
6,0,0.86|
6,1,5.4|
6,2,4.8|
6,3,7.7|
6,4,6.8|
6,5,5.1|
6,6,7.3|
6,7,3|
7,0,6.3|
7,1,5.9|
7,2,5|
7,3,8.1|
7,4,2.8|
7,5,8.1|
7,6,2.3|
7,7,5.7|
];
constraint_x2_y2=[
0,0,8.4|
0,1,3.9|
0,2,8.6|
0,3,0.4|
0,4,5.3|
0,5,0.31|
0,6,7.2|
0,7,6.5|
1,0,9.5|
1,1,6.8|
1,2,8.1|
1,3,2.6|
1,4,10|
1,5,3.5|
1,6,8.8|
1,7,5.7|
2,0,1.1|
2,1,2.8|
2,2,6.2|
2,3,8|
2,4,9.1|
2,5,3.8|
2,6,8.5|
2,7,2.1|
3,0,5.3|
3,1,7.4|
3,2,1.9|
3,3,4.8|
3,4,8.1|
3,5,6.4|
3,6,9.4|
3,7,8.2|
4,0,2.2|
4,1,4.1|
4,2,6.1|
4,3,5.6|
4,4,5.3|
4,5,0.91|
4,6,1.7|
4,7,9.8|
5,0,9.5|
5,1,9.6|
5,2,8.8|
5,3,3.7|
5,4,8.4|
5,5,1.9|
5,6,5.6|
5,7,4|
6,0,4.1|
6,1,6.3|
6,2,9.6|
6,3,3|
6,4,5|
6,5,7.4|
6,6,1.4|
6,7,1.1|
7,0,5.4|
7,1,2|
7,2,9.2|
7,3,2.1|
7,4,9.3|
7,5,3.5|
7,6,9.1|
7,7,3.6|
];
constraint_x3_y3=[
0,0,4.6|
0,1,1.7|
0,2,6.3|
0,3,3.5|
0,4,7.4|
0,5,4.3|
0,6,0.21|
0,7,6|
1,0,1.7|
1,1,5.8|
1,2,8.7|
1,3,7.1|
1,4,4.8|
1,5,0.63|
1,6,4.7|
1,7,8.7|
2,0,9.2|
2,1,4.2|
2,2,3.8|
2,3,2.4|
2,4,4.7|
2,5,2.9|
2,6,9.6|
2,7,4.1|
3,0,4.7|
3,1,2.9|
3,2,1.5|
3,3,6.4|
3,4,3.2|
3,5,0.089|
3,6,9.1|
3,7,5|
4,0,1.9|
4,1,5.1|
4,2,1.2|
4,3,6.5|
4,4,7|
4,5,1.6|
4,6,5.1|
4,7,6.1|
5,0,5.6|
5,1,2.9|
5,2,4.5|
5,3,7.1|
5,4,4.7|
5,5,5.1|
5,6,7.2|
5,7,7.3|
6,0,9.2|
6,1,7|
6,2,0.71|
6,3,1|
6,4,6.6|
6,5,3.8|
6,6,2.1|
6,7,0.78|
7,0,9.1|
7,1,1.6|
7,2,7.5|
7,3,9.7|
7,4,9.6|
7,5,3.7|
7,6,5.3|
7,7,9.6|
];
constraint_x4_y4=[
0,0,1.2|
0,1,8.8|
0,2,0.73|
0,3,0.092|
0,4,1.2|
0,5,3|
0,6,1.5|
0,7,5.5|
1,0,0.0098|
1,1,5|
1,2,6.5|
1,3,9.1|
1,4,7.6|
1,5,1.8|
1,6,2.9|
1,7,6.4|
2,0,0.0097|
2,1,1.5|
2,2,4.4|
2,3,5.2|
2,4,7.1|
2,5,6.7|
2,6,6.4|
2,7,3.2|
3,0,3.1|
3,1,5.5|
3,2,0.2|
3,3,7.5|
3,4,5.7|
3,5,8.7|
3,6,3.7|
3,7,8.1|
4,0,9|
4,1,6.5|
4,2,9.5|
4,3,0.012|
4,4,0.2|
4,5,9.4|
4,6,3.9|
4,7,5.6|
5,0,8.9|
5,1,9.5|
5,2,3.9|
5,3,3.4|
5,4,0.89|
5,5,7.1|
5,6,1.6|
5,7,7.1|
6,0,3.4|
6,1,5.7|
6,2,3.5|
6,3,9.5|
6,4,1.2|
6,5,9.2|
6,6,9.6|
6,7,9.2|
7,0,0.92|
7,1,2.3|
7,2,0.015|
7,3,3.1|
7,4,9.3|
7,5,0.014|
7,6,1.3|
7,7,1.5|
];
constraint_x5_y5=[
0,0,3.8|
0,1,6.8|
0,2,8.2|
0,3,6.9|
0,4,9|
0,5,0.38|
0,6,8.7|
0,7,1.3|
1,0,8.7|
1,1,1.1|
1,2,3|
1,3,9.5|
1,4,5.3|
1,5,0.97|
1,6,1.6|
1,7,3.3|
2,0,0.45|
2,1,0.33|
2,2,3.9|
2,3,7.1|
2,4,1.8|
2,5,2|
2,6,9.9|
2,7,4|
3,0,6.2|
3,1,8.9|
3,2,0.59|
3,3,7.5|
3,4,3|
3,5,4.4|
3,6,1.3|
3,7,0.24|
4,0,5.7|
4,1,5.6|
4,2,8.3|
4,3,7|
4,4,2.1|
4,5,2|
4,6,6.4|
4,7,8.5|
5,0,4.3|
5,1,4.8|
5,2,0.42|
5,3,4.2|
5,4,9.5|
5,5,3.2|
5,6,2.5|
5,7,5|
6,0,5.8|
6,1,6.8|
6,2,0.64|
6,3,2.5|
6,4,3.2|
6,5,8.7|
6,6,4.5|
6,7,3.9|
7,0,0.21|
7,1,7.8|
7,2,2.3|
7,3,2.1|
7,4,6|
7,5,4.9|
7,6,6.7|
7,7,0.49|
];
constraint_x6_y6=[
0,0,8.4|
0,1,4.9|
0,2,4.5|
0,3,8.1|
0,4,8.6|
0,5,2.2|
0,6,6.7|
0,7,3.6|
1,0,7.9|
1,1,3.5|
1,2,2.5|
1,3,4.2|
1,4,0.83|
1,5,3.7|
1,6,6.7|
1,7,7|
2,0,2.9|
2,1,0.68|
2,2,1.4|
2,3,3.4|
2,4,9.9|
2,5,4.7|
2,6,1.7|
2,7,1.8|
3,0,6.4|
3,1,1.3|
3,2,2.4|
3,3,7.1|
3,4,7.3|
3,5,4.5|
3,6,5.4|
3,7,0.21|
4,0,0.93|
4,1,3.7|
4,2,6.9|
4,3,5.6|
4,4,8.5|
4,5,3.5|
4,6,4.4|
4,7,4.4|
5,0,5.7|
5,1,2.2|
5,2,0.038|
5,3,7|
5,4,0.16|
5,5,4.3|
5,6,4.7|
5,7,3.8|
6,0,0.94|
6,1,5.7|
6,2,7.7|
6,3,2.9|
6,4,8.3|
6,5,7.5|
6,6,4.1|
6,7,5.9|
7,0,8.3|
7,1,1|
7,2,7.3|
7,3,8.9|
7,4,9.7|
7,5,4.7|
7,6,3|
7,7,8.4|
];
initial_distribution_y1=[0.1,0.13,0.058,0.23,0.18,0.022,0.041,0.24];
initial_distribution_y2=[0.099,0.031,0.23,0.16,0.16,0.17,0.12,0.03];
initial_distribution_y3=[0.067,0.14,0.16,0.039,0.069,0.19,0.16,0.17];
initial_distribution_y4=[0.12,0.087,0.092,0.13,0.23,0.096,0.2,0.043];
initial_distribution_y5=[0.072,0.011,0.25,0.17,0.2,0.16,0.024,0.11];
initial_distribution_y6=[0.034,0.14,0.012,0.1,0.17,0.043,0.32,0.17];
transition_y1=[
0.057,0.066,0.008,0.16,0.19,0.19,0.23,0.11|
0.097,0.17,0.028,0.19,0.15,0.086,0.12,0.16|
0.22,0.061,0.15,0.13,0.099,0.18,0.15,0.01|
0.12,0.085,0.2,0.084,0.096,0.29,0.062,0.06|
0.05,0.16,0.14,0.14,0.055,0.19,0.12,0.15|
0.14,0.12,0.13,0.16,0.19,0.035,0.17,0.051|
0.13,0.073,0.089,0.13,0.056,0.046,0.18,0.29|
0.11,0.12,0.14,0.13,0.038,0.045,0.16,0.25|
];
transition_y2=[
0.082,0.057,0.072,0.096,0.2,0.14,0.21,0.14|
0.097,0.19,0.067,0.15,0.11,0.12,0.037,0.22|
0.049,0.1,0.099,0.065,0.24,0.23,0.073,0.14|
0.18,0.16,0.12,0.068,0.16,0.15,0.067,0.087|
0.085,0.23,0.16,0.051,0.2,0.06,0.15,0.067|
0.14,0.042,0.16,0.17,0.12,0.16,0.0069,0.2|
0.08,0.16,0.17,0.05,0.096,0.053,0.24,0.16|
0.085,0.13,0.22,0.035,0.16,0.19,0.11,0.091|
];
transition_y3=[
0.26,0.14,0.0068,0.1,0.11,0.26,0.11,0.013|
0.051,0.061,0.061,0.23,0.21,0.13,0.12,0.14|
0.26,0.2,0.02,0.016,0.036,0.24,0.077,0.15|
0.065,0.042,0.16,0.19,0.16,0.16,0.22,0.0051|
0.16,0.062,0.094,0.16,0.17,0.12,0.18,0.054|
0.012,0.079,0.017,0.1,0.25,0.17,0.24,0.13|
0.11,0.18,0.076,0.2,0.2,0.033,0.14,0.071|
0.12,0.056,0.17,0.081,0.18,0.16,0.2,0.041|
];
transition_y4=[
0.047,0.11,0.13,0.1,0.21,0.01,0.21,0.18|
0.13,0.13,0.096,0.13,0.13,0.11,0.12,0.15|
0.11,0.19,0.21,0.03,0.16,0.21,0.051,0.051|
0.0042,0.12,0.014,0.21,0.17,0.24,0.18,0.066|
0.024,0.31,0.073,0.089,0.26,0.1,0.073,0.066|
0.14,0.17,0.13,0.079,0.18,0.023,0.078,0.19|
0.13,0.11,0.16,0.18,0.077,0.14,0.041,0.17|
0.069,0.24,0.25,0.069,0.034,0.23,0.081,0.031|
];
transition_y5=[
0.11,0.015,0.23,0.21,0.1,0.0049,0.11,0.21|
0.064,0.23,0.046,0.066,0.16,0.041,0.2,0.19|
0.049,0.16,0.16,0.033,0.22,0.013,0.23,0.14|
0.061,0.3,0.21,0.044,0.18,0.043,0.019,0.14|
0.11,0.0081,0.031,0.17,0.13,0.065,0.13,0.36|
0.16,0.17,0.18,0.17,0.13,0.015,0.069,0.097|
0.14,0.11,0.23,0.22,0.077,0.013,0.21,0.0036|
0.012,0.026,0.2,0.038,0.23,0.19,0.085,0.21|
];
transition_y6=[
0.09,0.14,0.098,0.13,0.19,0.15,0.012,0.2|
0.2,0.02,0.17,0.089,0.02,0.25,0.1,0.15|
0.18,0.18,0.011,0.15,0.12,0.12,0.14,0.091|
0.013,0.17,0.23,0.19,0.004,0.12,0.23,0.05|
0.12,0.0079,0.17,0.23,0.12,0.11,0.17,0.074|
0.093,0.07,0.19,0.096,0.13,0.24,0.16,0.012|
0.086,0.12,0.19,0.2,0.14,0.091,0.14,0.041|
0.061,0.18,0.15,0.14,0.086,0.18,0.097,0.12|
];
